s = array1d(1..400, [7, 13, 0, 8, 14, 0, 16, 15, 2, 3, 9, 0, 0, 0, 0, 18, 0, 0, 4, 0, 0, 0, 0, 10, 0, 13, 0, 0, 7, 6, 0, 0, 2, 17, 8, 19, 18, 0, 0, 3, 0, 0, 11, 0, 0, 2, 0, 14, 0, 0, 16, 12, 5, 15, 0, 3, 4, 8, 13, 0, 0, 1, 7, 18, 13, 14, 3, 0, 16, 0, 0, 0, 0, 0, 6, 17, 19, 11, 0, 0, 8, 0, 0, 3, 11, 0, 1, 0, 18, 0, 0, 0, 0, 2, 19, 10, 0, 0, 6, 17, 19, 0, 0, 0, 17, 10, 2, 0, 3, 9, 11, 4, 1, 0, 0, 0, 0, 7, 0, 0, 0, 11, 1, 0, 0, 3, 6, 0, 13, 0, 0, 9, 0, 0, 0, 15, 12, 0, 19, 18, 13, 0, 16, 0, 0, 0, 12, 19, 0, 5, 0, 10, 0, 7, 1, 9, 11, 14, 0, 0, 4, 0, 0, 13, 0, 0, 0, 1, 9, 11, 0, 8, 15, 10, 14, 0, 0, 0, 7, 6, 12, 18, 0, 4, 0, 0, 0, 3, 0, 0, 0, 19, 0, 0, 11, 0, 5, 17, 15, 2, 0, 9, 17, 0, 0, 0, 0, 7, 6, 0, 18, 0, 12, 3, 15, 0, 0, 1, 0, 11, 0, 0, 0, 0, 12, 11, 5, 18, 0, 1, 8, 6, 3, 0, 0, 0, 15, 0, 9, 10, 14, 7, 8, 0, 18, 19, 0, 17, 12, 0, 3, 0, 0, 0, 0, 0, 0, 15, 10, 13, 0, 0, 4, 0, 3, 7, 9, 0, 0, 8, 0, 18, 0, 12, 13, 5, 10, 0, 0, 0, 0, 0, 18, 12, 0, 0, 0, 4, 0, 13, 5, 1, 0, 0, 10, 0, 17, 16, 0, 19, 18, 16, 0, 0, 0, 0, 0, 0, 0, 7, 0, 14, 17, 0, 0, 2, 0, 13, 5, 1, 10, 0, 0, 11, 7, 9, 0, 0, 15, 14, 0, 0, 6, 4, 0, 0, 1, 0, 2, 0, 0, 8, 5, 0, 0, 0, 0, 0, 0, 0, 1, 0, 4, 9, 0, 16, 7, 18, 17, 0, 17, 6, 0, 0, 10, 0, 0, 12, 11, 15, 13, 0, 0, 16, 0, 0, 0, 2, 0, 14, 16, 15, 2, 6, 9, 12, 18, 5, 0, 0, 10, 11, 0, 0, 3, 0, 0, 0, 0, 0]);
n = 20;
